(set-logic QF_S)
(declare-fun var0 () String)
(assert (str.in.re var0 (re.++ (re.union (re.+ (str.to.re "00")) (re.+ (str.to.re "1"))) (re.++ (re.+ (re.* (str.to.re "222"))) (re.++ (re.+ (re.* (str.to.re "3"))) (re.++ (re.* (re.union (str.to.re "4") (str.to.re "555"))) (re.++ (re.+ (re.+ (str.to.re "66"))) (re.++ (re.union (re.union (str.to.re "77") (str.to.re "88")) (re.union (str.to.re "9") (str.to.re "aa"))) (re.++ (re.+ (re.* (str.to.re "bbb"))) (re.++ (re.* (re.* (str.to.re "ccc"))) (re.++ (re.union (re.+ (str.to.re "ddd")) (re.+ (str.to.re "e"))) (re.++ (re.* (re.union (str.to.re "fff") (str.to.re "gg"))) (re.++ (re.union (re.* (str.to.re "h")) (re.* (str.to.re "iii"))) (re.++ (re.+ (re.+ (str.to.re "jj"))) (re.++ (re.union (re.+ (str.to.re "kkk")) (re.+ (str.to.re "ll"))) (re.++ (re.* (re.* (str.to.re "mmm"))) (re.++ (re.* (re.+ (str.to.re "nn"))) (re.++ (re.+ (re.union (str.to.re "ooo") (str.to.re "p"))) (re.++ (re.+ (re.* (str.to.re "q"))) (re.++ (re.+ (re.+ (str.to.re "rr"))) (re.++ (re.* (re.+ (str.to.re "s"))) (re.++ (re.union (re.+ (str.to.re "tt")) (re.+ (str.to.re "uu"))) (re.++ (re.+ (re.+ (str.to.re "vvv"))) (re.++ (re.union (re.union (str.to.re "ww") (str.to.re "xx")) (re.union (str.to.re "y") (str.to.re "zz"))) (re.++ (re.+ (re.+ (str.to.re "A"))) (re.++ (re.+ (re.+ (str.to.re "BB"))) (re.++ (re.union (re.+ (str.to.re "CC")) (re.+ (str.to.re "D"))) (re.++ (re.* (re.+ (str.to.re "EEE"))) (re.++ (re.union (re.+ (str.to.re "F")) (re.+ (str.to.re "G"))) (re.++ (re.+ (re.* (str.to.re "HHH"))) (re.++ (re.union (re.union (str.to.re "I") (str.to.re "JJ")) (re.union (str.to.re "KKK") (str.to.re "L"))) (re.++ (re.union (re.* (str.to.re "MMM")) (re.* (str.to.re "N"))) (re.++ (re.union (re.union (str.to.re "OOO") (str.to.re "PP")) (re.union (str.to.re "QQQ") (str.to.re "RR"))) (re.++ (re.+ (re.* (str.to.re "S"))) (re.++ (re.+ (re.+ (str.to.re "TT"))) (re.++ (re.* (re.* (str.to.re "U"))) (re.++ (re.+ (re.+ (str.to.re "VV"))) (re.++ (re.* (re.union (str.to.re "W") (str.to.re "XX"))) (re.++ (re.* (re.union (str.to.re "YY") (str.to.re "ZZZ"))) (re.++ (re.* (re.+ (str.to.re "!"))) (re.++ (re.union (re.+ (str.to.re """""""")) (re.+ (str.to.re "###"))) (re.++ (re.+ (re.+ (str.to.re "$$"))) (re.++ (re.+ (re.+ (str.to.re "%"))) (re.++ (re.* (re.+ (str.to.re "&"))) (re.++ (re.* (re.+ (str.to.re "'"))) (re.++ (re.union (re.* (str.to.re "(((")) (re.* (str.to.re ")"))) (re.+ (re.* (str.to.re "***")))))))))))))))))))))))))))))))))))))))))))))))))
(check-sat)